benchmarks_vrp/CMT12/min_c/CMT12_9.vrp
NAME: CMT12_9
TYPE: CVRP
COMMENT: 819.56 - Cluster Nr.9
DIMENSION: 12
CAPACITY: 200
EDGE_WEIGHT_TYPE: EUC_2D
NODE_COORD_TYPE: TWOD_COORDS
NODE_COORD_SECTION: 
8 48 30
10 45 30
3 45 35
11 53 30
1 47 40
6 50 40
2 50 30
12 47 35
9 53 35
7 48 40
4 40 50
5 50 35
DEPOT_SECTION: 
4
-1
DEMAND_SECTION: 
9 50
2 10
6 50
4 0
1 10
11 10
12 10
10 10
8 10
7 10
5 20
3 10
EOF
