benchmarks_vrp/CMT12/min_c/CMT12_9.tour
NAME: CMT12_9 solution
TYPE: TOUR
TOUR_SECTION:
4 1 7 6 5 9 11 2 8 10 12 3 -1
-1
EOF